output/pollination_ilp.lp
Maximize
  0.1038055613392383 Z_310_3_0 + 0.0419901431995206 Z_310_3_1
   + 0.1005123398094643 Z_310_3_2 + 0.0417161269859714 Z_310_3_3
   + 0.6119758286658054 Z_310_3_4 + 1.6271932039138936e-04 Z_310_1_0
   + 0.00183666924151513 Z_310_1_1 + 0.6506223512344361 Z_310_1_2
   + 0.00517900653324702 Z_310_1_3 + 0.2421992536704103 Z_310_1_4
   + 0.089271474294452 Z_310_2_0 + 0.1312753528126752 Z_310_2_1
   + 0.019146997054809 Z_310_2_2 + 0.1618022970947869 Z_310_2_3
   + 0.4985038787432772 Z_310_2_4 + 1.6271932039138936e-04 Z_310_0_0
   + 0.00183666924151513 Z_310_0_1 + 0.6506223512344361 Z_310_0_2
   + 0.00517900653324702 Z_310_0_3 + 0.2421992536704103 Z_310_0_4
   + 1.5508648188787967e-04 Z_623_0_0 + 0.00254225027987789 Z_623_0_1
   + 0.7331609365440866 Z_623_0_2 + 0.00541679174880007 Z_623_0_3
   + 0.1587249349453476 Z_623_0_4 + 7.49975e-05 Z_649_0_0
   + 0.00307868487014438 Z_649_0_1 + 0.8474379406615242 Z_649_0_2
   + 0.00118883377176177 Z_649_0_3 + 0.0482195431579991 Z_649_0_4
Subject To
 constraint1_3103: Z_310_3_0 + Z_310_3_1 + Z_310_3_2 + Z_310_3_3
   + Z_310_3_4 <= 1
 constraint1_3101: Z_310_1_0 + Z_310_1_1 + Z_310_1_2 + Z_310_1_3
   + Z_310_1_4 <= 1
 constraint1_3102: Z_310_2_0 + Z_310_2_1 + Z_310_2_2 + Z_310_2_3
   + Z_310_2_4 <= 1
 constraint1_3100: Z_310_0_0 + Z_310_0_1 + Z_310_0_2 + Z_310_0_3
   + Z_310_0_4 <= 1
 constraint1_6230: Z_623_0_0 + Z_623_0_1 + Z_623_0_2 + Z_623_0_3
   + Z_623_0_4 <= 1
 constraint1_6490: Z_649_0_0 + Z_649_0_1 + Z_649_0_2 + Z_649_0_3
   + Z_649_0_4 <= 1
 constraint2_3100: Z_310_3_0 + Z_310_1_0 + Z_310_2_0 + Z_310_0_0 <= 1
 constraint2_3101: Z_310_3_1 + Z_310_1_1 + Z_310_2_1 + Z_310_0_1 <= 1
 constraint2_3102: Z_310_3_2 + Z_310_1_2 + Z_310_2_2 + Z_310_0_2 <= 1
 constraint2_3103: Z_310_3_3 + Z_310_1_3 + Z_310_2_3 + Z_310_0_3 <= 1
 constraint2_6230: Z_623_0_0 <= 1
 constraint2_6231: Z_623_0_1 <= 1
 constraint2_6232: Z_623_0_2 <= 1
 constraint2_6233: Z_623_0_3 <= 1
 constraint2_6490: Z_649_0_0 <= 1
 constraint2_6491: Z_649_0_1 <= 1
 constraint2_6492: Z_649_0_2 <= 1
 constraint2_6493: Z_649_0_3 <= 1
 constraint2_2510: <= 1
 constraint2_2511: <= 1
 constraint2_2512: <= 1
 constraint2_2513: <= 1
Bounds
Binaries
 Z_310_3_0 Z_310_3_1 Z_310_3_2 Z_310_3_3 Z_310_3_4 Z_310_1_0 Z_310_1_1
 Z_310_1_2 Z_310_1_3 Z_310_1_4 Z_310_2_0 Z_310_2_1 Z_310_2_2 Z_310_2_3
 Z_310_2_4 Z_310_0_0 Z_310_0_1 Z_310_0_2 Z_310_0_3 Z_310_0_4 Z_623_0_0
 Z_623_0_1 Z_623_0_2 Z_623_0_3 Z_623_0_4 Z_649_0_0 Z_649_0_1 Z_649_0_2
 Z_649_0_3 Z_649_0_4
End
