output/pollination_ilp.mps
NAME pollination_srl_ilp
* Max problem is converted into Min one
ROWS
 N  OBJ
 L  constraint1_3103
 L  constraint1_3101
 L  constraint1_3102
 L  constraint1_3100
 L  constraint1_6230
 L  constraint1_6490
 L  constraint2_3100
 L  constraint2_3101
 L  constraint2_3102
 L  constraint2_3103
 L  constraint2_6230
 L  constraint2_6231
 L  constraint2_6232
 L  constraint2_6233
 L  constraint2_6490
 L  constraint2_6491
 L  constraint2_6492
 L  constraint2_6493
 L  constraint2_2510
 L  constraint2_2511
 L  constraint2_2512
 L  constraint2_2513
COLUMNS
    MARKER    'MARKER'                 'INTORG'
    Z_310_3_0  OBJ       -1.0380556133923834e-01
    Z_310_3_0  constraint1_3103  1
    Z_310_3_0  constraint2_3100  1
    Z_310_3_1  OBJ       -4.1990143199520630e-02
    Z_310_3_1  constraint1_3103  1
    Z_310_3_1  constraint2_3101  1
    Z_310_3_2  OBJ       -1.0051233980946425e-01
    Z_310_3_2  constraint1_3103  1
    Z_310_3_2  constraint2_3102  1
    Z_310_3_3  OBJ       -4.1716126985971443e-02
    Z_310_3_3  constraint1_3103  1
    Z_310_3_3  constraint2_3103  1
    Z_310_3_4  OBJ       -6.1197582866580535e-01
    Z_310_3_4  constraint1_3103  1
    Z_310_1_0  OBJ       -1.6271932039138936e-04
    Z_310_1_0  constraint1_3101  1
    Z_310_1_0  constraint2_3100  1
    Z_310_1_1  OBJ       -1.8366692415151338e-03
    Z_310_1_1  constraint1_3101  1
    Z_310_1_1  constraint2_3101  1
    Z_310_1_2  OBJ       -6.5062235123443612e-01
    Z_310_1_2  constraint1_3101  1
    Z_310_1_2  constraint2_3102  1
    Z_310_1_3  OBJ       -5.1790065332470176e-03
    Z_310_1_3  constraint1_3101  1
    Z_310_1_3  constraint2_3103  1
    Z_310_1_4  OBJ       -2.4219925367041034e-01
    Z_310_1_4  constraint1_3101  1
    Z_310_2_0  OBJ       -8.9271474294452008e-02
    Z_310_2_0  constraint1_3102  1
    Z_310_2_0  constraint2_3100  1
    Z_310_2_1  OBJ       -1.3127535281267516e-01
    Z_310_2_1  constraint1_3102  1
    Z_310_2_1  constraint2_3101  1
    Z_310_2_2  OBJ       -1.9146997054808955e-02
    Z_310_2_2  constraint1_3102  1
    Z_310_2_2  constraint2_3102  1
    Z_310_2_3  OBJ       -1.6180229709478688e-01
    Z_310_2_3  constraint1_3102  1
    Z_310_2_3  constraint2_3103  1
    Z_310_2_4  OBJ       -4.9850387874327717e-01
    Z_310_2_4  constraint1_3102  1
    Z_310_0_0  OBJ       -1.6271932039138936e-04
    Z_310_0_0  constraint1_3100  1
    Z_310_0_0  constraint2_3100  1
    Z_310_0_1  OBJ       -1.8366692415151338e-03
    Z_310_0_1  constraint1_3100  1
    Z_310_0_1  constraint2_3101  1
    Z_310_0_2  OBJ       -6.5062235123443612e-01
    Z_310_0_2  constraint1_3100  1
    Z_310_0_2  constraint2_3102  1
    Z_310_0_3  OBJ       -5.1790065332470176e-03
    Z_310_0_3  constraint1_3100  1
    Z_310_0_3  constraint2_3103  1
    Z_310_0_4  OBJ       -2.4219925367041034e-01
    Z_310_0_4  constraint1_3100  1
    Z_623_0_0  OBJ       -1.5508648188787967e-04
    Z_623_0_0  constraint1_6230  1
    Z_623_0_0  constraint2_6230  1
    Z_623_0_1  OBJ       -2.5422502798778924e-03
    Z_623_0_1  constraint1_6230  1
    Z_623_0_1  constraint2_6231  1
    Z_623_0_2  OBJ       -7.3316093654408665e-01
    Z_623_0_2  constraint1_6230  1
    Z_623_0_2  constraint2_6232  1
    Z_623_0_3  OBJ       -5.4167917488000695e-03
    Z_623_0_3  constraint1_6230  1
    Z_623_0_3  constraint2_6233  1
    Z_623_0_4  OBJ       -1.5872493494534759e-01
    Z_623_0_4  constraint1_6230  1
    Z_649_0_0  OBJ       -7.4997538570549215e-05
    Z_649_0_0  constraint1_6490  1
    Z_649_0_0  constraint2_6490  1
    Z_649_0_1  OBJ       -3.0786848701443775e-03
    Z_649_0_1  constraint1_6490  1
    Z_649_0_1  constraint2_6491  1
    Z_649_0_2  OBJ       -8.4743794066152422e-01
    Z_649_0_2  constraint1_6490  1
    Z_649_0_2  constraint2_6492  1
    Z_649_0_3  OBJ       -1.1888337717617698e-03
    Z_649_0_3  constraint1_6490  1
    Z_649_0_3  constraint2_6493  1
    Z_649_0_4  OBJ       -4.8219543157999090e-02
    Z_649_0_4  constraint1_6490  1
    MARKER    'MARKER'                 'INTEND'
RHS
    RHS1      constraint1_3103  1
    RHS1      constraint1_3101  1
    RHS1      constraint1_3102  1
    RHS1      constraint1_3100  1
    RHS1      constraint1_6230  1
    RHS1      constraint1_6490  1
    RHS1      constraint2_3100  1
    RHS1      constraint2_3101  1
    RHS1      constraint2_3102  1
    RHS1      constraint2_3103  1
    RHS1      constraint2_6230  1
    RHS1      constraint2_6231  1
    RHS1      constraint2_6232  1
    RHS1      constraint2_6233  1
    RHS1      constraint2_6490  1
    RHS1      constraint2_6491  1
    RHS1      constraint2_6492  1
    RHS1      constraint2_6493  1
    RHS1      constraint2_2510  1
    RHS1      constraint2_2511  1
    RHS1      constraint2_2512  1
    RHS1      constraint2_2513  1
BOUNDS
 UP BND1      Z_310_3_0  1
 UP BND1      Z_310_3_1  1
 UP BND1      Z_310_3_2  1
 UP BND1      Z_310_3_3  1
 UP BND1      Z_310_3_4  1
 UP BND1      Z_310_1_0  1
 UP BND1      Z_310_1_1  1
 UP BND1      Z_310_1_2  1
 UP BND1      Z_310_1_3  1
 UP BND1      Z_310_1_4  1
 UP BND1      Z_310_2_0  1
 UP BND1      Z_310_2_1  1
 UP BND1      Z_310_2_2  1
 UP BND1      Z_310_2_3  1
 UP BND1      Z_310_2_4  1
 UP BND1      Z_310_0_0  1
 UP BND1      Z_310_0_1  1
 UP BND1      Z_310_0_2  1
 UP BND1      Z_310_0_3  1
 UP BND1      Z_310_0_4  1
 UP BND1      Z_623_0_0  1
 UP BND1      Z_623_0_1  1
 UP BND1      Z_623_0_2  1
 UP BND1      Z_623_0_3  1
 UP BND1      Z_623_0_4  1
 UP BND1      Z_649_0_0  1
 UP BND1      Z_649_0_1  1
 UP BND1      Z_649_0_2  1
 UP BND1      Z_649_0_3  1
 UP BND1      Z_649_0_4  1
ENDATA
