output/pollination_ilp.sol
# Solution for model pollination_srl_ilp
# Objective value = 3.5839001895195395e+00
Z_310_3_0 0
Z_310_3_1 0
Z_310_3_2 0
Z_310_3_3 0
Z_310_3_4 1
Z_310_1_0 0
Z_310_1_1 0
Z_310_1_2 0
Z_310_1_3 0
Z_310_1_4 1
Z_310_2_0 0
Z_310_2_1 0
Z_310_2_2 0
Z_310_2_3 0
Z_310_2_4 1
Z_310_0_0 0
Z_310_0_1 0
Z_310_0_2 1
Z_310_0_3 0
Z_310_0_4 0
Z_623_0_0 0
Z_623_0_1 0
Z_623_0_2 1
Z_623_0_3 0
Z_623_0_4 0
Z_649_0_0 0
Z_649_0_1 0
Z_649_0_2 1
Z_649_0_3 0
Z_649_0_4 0
